proyfinal/src/viki/013/andrea/andrea-localstore/experimentInOfficeAgust.take6/worker_1/930fd3e9-0234-4102-82f0-4418844d766d.als.cnf.out
Reading from standard input... Use '--help' for help.
============================[ Problem Statistics ]=============================
|                                                                             |
|  Number of variables:         87638                                         |
|  Number of clauses:          161767                                         |
|  Parse time:                   0.03 s                                       |
|                                                                             |
============================[ Search Statistics ]==============================
| Conflicts |          ORIGINAL         |          LEARNT          | Progress |
|           |    Vars  Clauses Literals |    Limit  Clauses Lit/Cl |          |
===============================================================================
|       100 |   62003   103861   259462 |    38082      100     33 | 29.251 % |
|       250 |   62003   103861   259462 |    41890      250     35 | 29.251 % |
|       475 |   62003   103861   259462 |    46079      475     55 | 29.251 % |
|       812 |   61984   103785   259281 |    50687      811     85 | 29.273 % |
|      1318 |   61968   103719   259128 |    55756     1002     72 | 29.291 % |
|      2077 |   61948   103641   258941 |    61332     1760     86 | 29.314 % |
|      3216 |   61910   103489   258581 |    67465     2895    105 | 29.357 % |
|      4924 |   49631    68698   173021 |    74211     3889     73 | 43.368 % |
|      7486 |   49140    66449   167582 |    81632     6417     64 | 43.928 % |
|     11330 |   48845    65228   164707 |    89796     9831     55 | 44.265 % |
===============================================================================
restarts              : 52
conflicts             : 12037          (8020 /sec)
decisions             : 41002          (0.00 % random) (27319 /sec)
propagations          : 17743997       (11822711 /sec)
conflict literals     : 731724         (42.69 % deleted)
Memory used           : 29.40 MB
CPU time              : 1.50084 s

UNSATISFIABLE
